; benchmark generated from python API
(set-info :status unknown)
(declare-datatypes ((RealState 0)) (((RMk1 (rval1 Real)) (RMk2 (rval2 Real)))))
 (assert
 (exists ((|v11:0_st| RealState) (val!4644 Real) )(exists ((|v10:1_st| RealState) (val!4645 Real) )(exists ((|v9:2_st| RealState) (val!4646 Real) )(exists ((|v8:3_st| RealState) (val!4647 Real) )(forall ((|v7:4| Real) )(forall ((|v6:5| Real) )(forall ((|v5:6| Real) )(forall ((|v4:7| Real) )(exists ((|v3:8_st| RealState) (val!4648 Real) )(exists ((|v2:9_st| RealState) (val!4649 Real) )(exists ((|v1:10_st| RealState) (val!4650 Real) )(exists ((|v0:11_st| RealState) (val!4651 Real) )(let ((?x496 (- 19.0)))
 (let ((?x1300 (+ (+ (+ |v6:5| (* 6.0 (rval2 |v0:11_st|))) (* 17.0 (rval2 |v0:11_st|))) (* (- 15.0) (rval2 |v0:11_st|)))))
 (let ((?x2749 (- 17.0)))
 (let ((?x2387 (- 1.0)))
 (let ((?x2112 (* ?x2387 |v6:5|)))
 (let ((?x641 (+ (+ (* 4.0 (rval2 |v10:1_st|)) (* (- 9.0) (rval2 |v8:3_st|))) (* 10.0 |v6:5|))))
 (let ((?x2946 (- 12.0)))
 (let ((?x1546 (+ (+ (* (- 4.0) (rval2 |v2:9_st|)) (* 12.0 |v4:7|)) (* 18.0 (rval2 |v8:3_st|)))))
 (let ((?x220 (rval2 |v11:0_st|)))
 (let ((?x1707 (* 20.0 ?x220)))
 (let ((?x498 (+ (+ (+ (* 0.0 |v4:7|) (* 8.0 |v6:5|)) (* (- 20.0) ?x220)) ?x1707)))
 (let (($x598 (and (and (<= ?x498 15.0) (<= (+ ?x1546 (* 16.0 (rval2 |v9:2_st|))) ?x2946)) (and (<= (+ ?x641 ?x2112) ?x2749) (<= ?x1300 ?x496)))))
 (let ((?x977 (- 6.0)))
 (let ((?x721 (rval2 |v0:11_st|)))
 (let ((?x3222 (* 13.0 ?x721)))
 (let ((?x2730 (+ (+ (+ (rval2 |v1:10_st|) (* 12.0 |v6:5|)) (* (- 2.0) (rval2 |v3:8_st|))) ?x3222)))
 (let ((?x273 (rval2 |v2:9_st|)))
 (let ((?x3375 (* 3.0 ?x273)))
 (let ((?x3138 (rval2 |v1:10_st|)))
 (let ((?x1633 (- 7.0)))
 (let ((?x3004 (* ?x1633 ?x3138)))
 (let (($x212 (<= (+ (+ (+ (* (- 5.0) (rval2 |v9:2_st|)) (* 2.0 |v4:7|)) ?x3004) ?x3375) 18.0)))
 (let ((?x3071 (rval2 |v8:3_st|)))
 (let ((?x672 (* ?x977 ?x3071)))
 (let ((?x2068 (+ (+ (+ (* 19.0 (rval2 |v3:8_st|)) (* (- 8.0) ?x273)) ?x672) (* 12.0 ?x273))))
 (let ((?x1774 (- 11.0)))
 (let ((?x3212 (+ (+ (+ (* 6.0 |v7:4|) (* 10.0 |v4:7|)) (* ?x2387 |v4:7|)) (* (- 4.0) (rval2 |v3:8_st|)))))
 (let (($x3037 (and (and (and (<= ?x3212 ?x1774) (<= ?x2068 ?x2946)) (and $x212 (<= ?x2730 ?x977))) $x598)))
 (let ((?x3147 (rval2 |v9:2_st|)))
 (let ((?x2679 (* 2.0 ?x3147)))
 (let ((?x655 (+ (+ (+ (* 13.0 ?x3138) (* 19.0 ?x3138)) (* (- 14.0) ?x273)) ?x2679)))
 (let ((?x2114 (* 4.0 |v4:7|)))
 (let ((?x607 (+ (+ (+ (* 12.0 (rval2 |v10:1_st|)) (* 8.0 ?x220)) (* (- 13.0) |v4:7|)) ?x2114)))
 (let ((?x2202 (* 8.0 ?x3138)))
 (let ((?x2438 (+ (+ (+ (* 3.0 ?x3071) (* ?x1774 (rval2 |v10:1_st|))) (* 14.0 ?x3071)) ?x2202)))
 (let ((?x224 (* 11.0 ?x3071)))
 (let ((?x2151 (+ (+ (+ (* ?x2946 ?x3147) (* (- 2.0) ?x3138)) (* ?x496 (rval2 |v3:8_st|))) ?x224)))
 (let (($x3444 (and (and (<= ?x2151 20.0) (<= ?x2438 ?x1774)) (and (<= ?x607 ?x2946) (<= ?x655 0.0)))))
 (let ((?x2503 (- 3.0)))
 (let ((?x1709 (- 16.0)))
 (let ((?x813 (* ?x1709 ?x3138)))
 (let ((?x2086 (+ (+ (+ (* 4.0 ?x3138) (* ?x977 (rval2 |v3:8_st|))) (* (- 5.0) ?x220)) ?x813)))
 (let ((?x1477 (- 5.0)))
 (let ((?x2378 (+ (+ (+ (* 10.0 ?x3138) (* 0.0 ?x721)) (* 2.0 (rval2 |v3:8_st|))) ?x721)))
 (let ((?x1608 (+ (+ (+ (* ?x496 |v4:7|) (* ?x1477 (rval2 |v10:1_st|))) (* ?x1709 |v5:6|)) (* 16.0 ?x721))))
 (let ((?x2397 (rval2 |v3:8_st|)))
 (let ((?x1644 (* 4.0 ?x2397)))
 (let ((?x1876 (+ (+ (+ (* (- 2.0) ?x3071) (* 2.0 ?x220)) (* 15.0 ?x273)) ?x1644)))
 (let (($x1675 (and (and (<= ?x1876 7.0) (<= ?x1608 ?x1477)) (and (<= ?x2378 ?x1477) (<= ?x2086 ?x2503)))))
 (let ((?x1415 (- 15.0)))
 (let ((?x411 (+ (+ (+ (* 17.0 |v4:7|) (* (- 13.0) ?x3147)) (* (- 18.0) |v7:4|)) (* ?x2503 |v5:6|))))
 (let ((?x2375 (* 19.0 |v4:7|)))
 (let (($x152 (<= (+ (+ (+ (* ?x977 ?x273) (* ?x2749 ?x3147)) (* 15.0 ?x273)) ?x2375) 9.0)))
 (let ((?x1510 (* 4.0 ?x220)))
 (let (($x660 (<= (+ (+ (+ (* 9.0 ?x3071) (* 16.0 ?x273)) (* ?x2946 ?x721)) ?x1510) ?x2749)))
 (let ((?x2651 (* 5.0 ?x2397)))
 (let (($x1588 (<= (+ (+ (+ (* (- 8.0) ?x3071) ?x813) (* 8.0 ?x721)) ?x2651) 6.0)))
 (let ((?x1642 (- 18.0)))
 (let ((?x2699 (* 12.0 |v7:4|)))
 (let ((?x1730 (+ (+ (+ (* 3.0 (rval2 |v10:1_st|)) (* (- 14.0) (rval2 |v10:1_st|))) ?x2699) (* ?x2387 ?x721))))
 (let (($x2709 (or (<= ?x1730 6.0) (<= (+ (+ (+ ?x2114 (* 15.0 |v6:5|)) ?x721) (* 9.0 |v4:7|)) ?x1642))))
 (let ((?x961 (- 2.0)))
 (let ((?x3213 (* ?x961 |v6:5|)))
 (let (($x1696 (<= (+ (+ (+ (* ?x2749 |v6:5|) (* 3.0 ?x3071)) (* ?x977 |v5:6|)) ?x3213) 17.0)))
 (let ((?x2983 (* 20.0 ?x3138)))
 (let ((?x131 (+ (+ (+ (* 19.0 |v6:5|) (* 8.0 |v4:7|)) (* (- 4.0) |v5:6|)) ?x2983)))
 (let (($x2903 (and (and (and (<= ?x131 ?x961) $x1696) $x2709) (or (and $x1588 $x660) (and $x152 (<= ?x411 ?x1415))))))
 (let ((?x3190 (+ (+ (+ (* ?x2946 ?x3071) (* ?x2387 ?x3147)) (* ?x2749 ?x3071)) (* ?x1642 ?x2397))))
 (let (($x3399 (<= (+ (+ (+ (* ?x977 ?x3138) (* ?x961 |v7:4|)) ?x3213) (* 18.0 ?x220)) ?x977)))
 (let ((?x2072 (- 14.0)))
 (let ((?x3023 (* 18.0 ?x273)))
 (let ((?x1900 (+ (+ (+ (* 15.0 ?x2397) (* 15.0 (rval2 |v10:1_st|))) (* 5.0 |v6:5|)) ?x3023)))
 (let ((?x2888 (* 14.0 ?x3138)))
 (let (($x2735 (<= (+ (+ (+ (* (- 4.0) ?x220) ?x2888) (* (- 10.0) ?x3147)) ?x2888) 14.0)))
 (let ((?x2907 (+ (+ (+ (* 17.0 ?x3071) (* ?x2749 (rval2 |v10:1_st|))) (* 17.0 ?x220)) (* ?x961 (rval2 |v10:1_st|)))))
 (let ((?x657 (* ?x1774 ?x3071)))
 (let (($x2063 (<= (+ (+ (+ (* 18.0 |v5:6|) (* 3.0 |v5:6|)) (* 3.0 |v4:7|)) ?x657) ?x1642)))
 (let ((?x2572 (- 4.0)))
 (let ((?x3187 (* ?x2572 |v4:7|)))
 (let (($x2354 (<= (+ (+ (+ (* ?x2072 |v4:7|) (* (- 13.0) |v7:4|)) (* 13.0 |v5:6|)) ?x3187) ?x2503)))
 (let ((?x2648 (- 8.0)))
 (let ((?x1571 (+ (+ (+ (* 13.0 ?x220) (* (- 9.0) (rval2 |v10:1_st|))) (* ?x2749 ?x273)) (* ?x2648 |v5:6|))))
 (let (($x67 (or (and (or (<= ?x1571 ?x2648) $x2354) (and $x2063 (<= ?x2907 5.0))) (and (and $x2735 (<= ?x1900 ?x2072)) (and $x3399 (<= ?x3190 2.0))))))
 (let ((?x2235 (* ?x2072 ?x273)))
 (let ((?x2119 (+ (+ (+ (* ?x2503 (rval2 |v10:1_st|)) (* 20.0 ?x2397)) (* ?x496 ?x721)) ?x2235)))
 (let ((?x1744 (+ (+ (+ (* 3.0 |v6:5|) (* (- 9.0) ?x3071)) (* ?x1709 |v7:4|)) (* 10.0 ?x3071))))
 (let ((?x2770 (+ (+ (+ ?x3213 (* ?x2503 |v6:5|)) (* 18.0 |v4:7|)) (* ?x1633 (rval2 |v10:1_st|)))))
 (let ((?x766 (* 19.0 |v7:4|)))
 (let (($x1370 (<= (+ (+ (+ (* 0.0 |v5:6|) (* 2.0 ?x273)) (* 18.0 ?x2397)) ?x766) 10.0)))
 (let (($x2223 (and (and $x1370 (<= ?x2770 14.0)) (and (<= ?x1744 20.0) (<= ?x2119 10.0)))))
 (let ((?x155 (+ (+ (+ (* 19.0 ?x721) (* 5.0 |v4:7|)) (* 19.0 ?x3138)) (* ?x1642 ?x721))))
 (let (($x2311 (and (<= ?x155 15.0) (<= (+ (+ (+ ?x3213 ?x657) (* 16.0 ?x273)) ?x1510) ?x2387))))
 (let ((?x217 (* 10.0 ?x273)))
 (let ((?x1567 (+ (+ (+ (* 19.0 ?x2397) (* ?x1415 (rval2 |v10:1_st|))) (* 7.0 |v5:6|)) ?x217)))
 (let ((?x1319 (- 13.0)))
 (let ((?x329 (* ?x1319 |v4:7|)))
 (let ((?x133 (+ (+ (+ (* 2.0 |v5:6|) (* 2.0 (rval2 |v10:1_st|))) (* 4.0 ?x273)) ?x329)))
 (let ((?x2874 (+ (+ (+ (* 3.0 ?x220) (* ?x1774 ?x721)) (* 17.0 |v5:6|)) (* ?x977 ?x220))))
 (let (($x3013 (and (<= (+ (+ (+ ?x2202 (* ?x2572 ?x721)) (* 4.0 ?x3071)) ?x657) ?x2572) (<= ?x2874 5.0))))
 (let ((?x3423 (* ?x2946 |v5:6|)))
 (let (($x3270 (<= (+ (+ (+ (* 20.0 ?x721) (* 10.0 |v7:4|)) (* ?x2572 ?x273)) ?x3423) ?x1709)))
 (let ((?x2840 (+ (+ (+ (* ?x1415 ?x3138) (* ?x1477 ?x3147)) (* 12.0 ?x3147)) (* ?x1633 ?x2397))))
 (let ((?x1431 (+ (+ (+ (* ?x1774 ?x220) (* ?x2072 |v4:7|)) (* ?x2503 |v6:5|)) (* ?x2503 ?x2397))))
 (let ((?x838 (+ (+ (+ (* (- 20.0) ?x3138) ?x2679) (* (- 20.0) ?x220)) (* ?x1415 ?x3147))))
 (let (($x1257 (<= (+ (+ (+ (* (- 9.0) ?x3147) ?x3004) (* ?x2072 ?x2397)) (* 14.0 ?x3071)) ?x977)))
 (let ((?x682 (* ?x1477 |v5:6|)))
 (let (($x233 (<= (+ (+ (+ (* 19.0 |v5:6|) (* ?x2749 |v4:7|)) (* 7.0 ?x273)) ?x682) ?x2572)))
 (let (($x450 (and (and (and $x233 $x1257) (and (<= ?x838 2.0) (<= ?x1431 20.0))) (and (and (<= ?x2840 9.0) $x3270) $x3013))))
 (let (($x1756 (and $x450 (or (and (and (<= ?x133 ?x496) (<= ?x1567 12.0)) $x2311) $x2223))))
 (let ((?x359 (+ (+ (+ (* (- 10.0) |v7:4|) (* 19.0 ?x273)) (* 5.0 ?x3138)) ?x2202)))
 (let ((?x2012 (* 12.0 |v4:7|)))
 (let ((?x2588 (+ (+ (+ (* 8.0 ?x721) (* 17.0 ?x3147)) (* (- 9.0) |v4:7|)) ?x2012)))
 (let ((?x2292 (* 16.0 |v5:6|)))
 (let (($x1480 (<= (+ (+ (+ (* 3.0 |v4:7|) (* ?x1633 |v4:7|)) (* 17.0 |v4:7|)) ?x2292) 7.0)))
 (let (($x2479 (or $x1480 (<= (+ (+ (+ ?x2235 (* ?x1633 ?x3147)) ?x2114) (* ?x2072 ?x2397)) 19.0))))
 (let ((?x2620 (* 7.0 |v6:5|)))
 (let (($x3176 (<= (+ (+ (+ (* 17.0 ?x3071) (* 4.0 |v7:4|)) (* 7.0 ?x220)) ?x2620) 18.0)))
 (let ((?x443 (* 15.0 |v4:7|)))
 (let (($x1534 (<= (+ (+ (+ (* ?x2503 ?x3138) (* ?x1633 |v5:6|)) (* 18.0 |v5:6|)) ?x443) ?x2503)))
 (let ((?x1953 (+ (+ (+ (* ?x2648 |v4:7|) (* 2.0 |v6:5|)) (* (- 10.0) |v5:6|)) (* ?x2387 (rval2 |v10:1_st|)))))
 (let ((?x1665 (+ (+ (+ (* 12.0 |v5:6|) (* (- 20.0) ?x220)) (* (- 10.0) ?x2397)) (* ?x2387 ?x3071))))
 (let (($x1155 (and (and (and (<= ?x1665 14.0) (<= ?x1953 ?x977)) (and $x1534 $x3176)) (and $x2479 (and (<= ?x2588 ?x1319) (<= ?x359 1.0))))))
 (let (($x1611 (<= (+ (+ (+ ?x329 ?x672) (* (- 10.0) ?x3147)) (* 3.0 ?x3138)) 5.0)))
 (let ((?x1603 (+ (+ (+ ?x1707 (* (- 9.0) ?x3071)) (* 7.0 |v4:7|)) (* (- 20.0) (rval2 |v10:1_st|)))))
 (let (($x2667 (<= (+ (+ (+ (* ?x2572 ?x721) ?x3187) (* 20.0 |v4:7|)) (* 3.0 ?x220)) 6.0)))
 (let ((?x70 (+ (+ (+ (* 15.0 ?x273) (* 16.0 |v6:5|)) ?x224) (* (- 20.0) ?x273))))
 (let ((?x677 (+ (+ (+ ?x273 (* ?x1415 ?x273)) (* (- 9.0) ?x2397)) (* (- 9.0) ?x3138))))
 (let ((?x1521 (* 3.0 |v7:4|)))
 (let ((?x971 (+ (+ (+ (* 8.0 (rval2 |v10:1_st|)) (* 6.0 ?x3138)) (* ?x1477 ?x721)) ?x1521)))
 (let ((?x2879 (+ (+ (+ (* 20.0 |v5:6|) (* ?x1477 ?x220)) (* 5.0 |v6:5|)) (* ?x496 |v5:6|))))
 (let ((?x1069 (+ (+ (+ (* ?x2503 ?x3071) (* ?x2503 |v4:7|)) (* (- 9.0) ?x721)) (* 0.0 |v6:5|))))
 (let (($x1492 (and (and (<= ?x1069 7.0) (<= ?x2879 4.0)) (and (<= ?x971 4.0) (<= ?x677 5.0)))))
 (let (($x1436 (and $x1492 (and (and (<= ?x70 12.0) $x2667) (and (<= ?x1603 ?x2503) $x1611)))))
 (let (($x921 (and (and (and $x1436 $x1155) $x1756) (and (and $x67 $x2903) (and (and $x1675 $x3444) $x3037)))))
 (let (($x1161 (not (= |v0:11_st| (RMk1 val!4651)))))
 (let (($x1272 (not (= |v1:10_st| (RMk1 val!4650)))))
 (let (($x1346 (not (= |v2:9_st| (RMk1 val!4649)))))
 (let (($x2005 (not (= |v3:8_st| (RMk1 val!4648)))))
 (let (($x1367 (not (= |v8:3_st| (RMk1 val!4647)))))
 (let (($x3058 (not (= |v9:2_st| (RMk1 val!4646)))))
 (let (($x1294 (not (= |v10:1_st| (RMk1 val!4645)))))
 (let (($x2915 (not (= |v11:0_st| (RMk1 val!4644)))))
 (and $x2915 $x1294 $x3058 $x1367 $x2005 $x1346 $x1272 $x1161 $x921))))))))))))))))))))))))))))))))))))))))))))))))))))))))))))))))))))))))))))))))))))))))))))))))))))))))))))))))))))))))))))))))))))))))))))))))
 )
 )
 )
 )
 )
 )
 )
 )
 )
 )
 )
 )
(check-sat)
